* ENCODING=ISO-8859-1
NAME          CPLEX
ROWS
 N  obj1    
 G  c1      
 G  c2      
 G  c3      
 G  c4      
 G  c5      
 G  c6      
 G  c7      
 G  c8      
 G  c9      
 G  c10     
 G  c11     
 G  c12     
 G  c13     
 G  c14     
 G  c15     
 G  c16     
 G  c17     
 G  c18     
 G  c19     
 G  c20     
 G  c21     
 G  c22     
 G  c23     
 G  c24     
 G  c25     
 G  c26     
 G  c27     
 G  c28     
 G  c29     
 G  c30     
COLUMNS
    MARK0000  'MARKER'                 'INTORG'
    x1        obj1                            1
    x1        c3                            704
    x1        c4                            997
    x1        c17                           550
    x1        c25                           353
    x2        obj1                            1
    x2        c1                            794
    x2        c15                           785
    x2        c28                           908
    x3        obj1                            1
    x3        c9                            757
    x3        c13                           590
    x3        c25                           641
    x3        c27                           883
    x4        obj1                            1
    x4        c11                           995
    x4        c19                           978
    x4        c22                           798
    x5        obj1                            1
    x5        c4                            927
    x5        c13                           172
    x5        c25                           483
    x6        obj1                            1
    x6        c5                            614
    x6        c12                           578
    x6        c17                           835
    x6        c24                           781
    x6        c29                           264
    x7        obj1                            1
    x7        c2                            884
    x7        c29                           591
    x8        obj1                            1
    x8        c11                           550
    x8        c13                           330
    x8        c15                           313
    x8        c17                           478
    x8        c29                           395
    x9        obj1                            1
    x9        c3                            140
    x9        c25                           824
    x9        c28                           807
    x10       obj1                            1
    x10       c25                           450
    x11       obj1                            1
    x11       c13                           172
    x11       c15                           821
    x11       c26                           528
    x12       obj1                            1
    x12       c2                            618
    x12       c8                            579
    x12       c18                           132
    x13       obj1                            1
    x13       c3                            858
    x13       c8                            499
    x13       c23                           772
    x14       obj1                            1
    x14       c4                            763
    x14       c21                           750
    x14       c25                           145
    x14       c27                           520
    x15       obj1                            1
    x15       c2                            680
    x15       c4                            320
    x15       c9                            256
    x15       c13                           421
    x15       c23                           897
    x15       c29                           271
    x16       obj1                            1
    x16       c6                            629
    x16       c12                           805
    x16       c15                           207
    x17       obj1                            1
    x17       c7                            951
    x17       c25                           793
    x18       obj1                            1
    x18       c3                            952
    x18       c9                            831
    x18       c10                           895
    x18       c12                           789
    x18       c18                           134
    x18       c26                           681
    x19       obj1                            1
    x19       c1                            236
    x19       c11                           761
    x19       c20                           933
    x19       c27                           127
    x19       c30                           449
    x20       obj1                            1
    x20       c3                            910
    x20       c10                           384
    x20       c20                           558
    x20       c25                           933
    x21       obj1                            1
    x21       c16                           492
    x21       c20                           312
    x22       obj1                            1
    x22       c8                            538
    x22       c15                           285
    x22       c23                           863
    x23       obj1                            1
    x23       c7                            933
    x24       obj1                            1
    x24       c9                            442
    x25       obj1                            1
    x26       obj1                            1
    x26       c11                           817
    x26       c14                           174
    x26       c22                           261
    x26       c24                           780
    x27       obj1                            1
    x27       c28                           583
    x28       obj1                            1
    x28       c4                            336
    x28       c8                            730
    x29       obj1                            1
    x29       c9                            451
    x29       c19                           937
    x30       obj1                            1
    x30       c1                            565
    x30       c4                            716
    x30       c22                           322
    x30       c24                           364
    x31       obj1                            1
    x31       c7                            904
    x31       c8                            350
    x31       c10                           244
    x31       c29                           864
    x32       obj1                            1
    x32       c15                           137
    x32       c30                           627
    x33       obj1                            1
    x33       c5                            544
    x33       c11                           902
    x33       c15                           793
    x34       obj1                            1
    x34       c7                            762
    x34       c20                           799
    x35       obj1                            1
    x35       c1                            828
    x35       c10                           586
    x35       c28                           889
    x36       obj1                            1
    x36       c12                           266
    x36       c15                           480
    x36       c27                           859
    x36       c29                           575
    x37       obj1                            1
    x37       c9                            356
    x37       c12                           262
    x37       c15                           492
    x37       c26                           512
    x37       c28                           468
    x38       obj1                            1
    x38       c8                            317
    x38       c11                           590
    x38       c21                           300
    x38       c26                           257
    x39       obj1                            1
    x39       c4                            599
    x39       c14                           298
    x39       c17                           898
    x39       c26                           107
    x40       obj1                            1
    x40       c10                           933
    x40       c20                           988
    x41       obj1                            1
    x41       c10                           781
    x41       c20                           693
    x41       c26                           972
    x42       obj1                            1
    x42       c7                            632
    x42       c8                            998
    x42       c13                           635
    x42       c17                           267
    x43       obj1                            1
    x43       c13                           366
    x43       c20                           588
    x44       obj1                            1
    x44       c8                            780
    x44       c9                            925
    x44       c14                           833
    x44       c18                           751
    x44       c21                           968
    x44       c29                           203
    x45       obj1                            1
    x45       c5                            142
    x45       c6                            452
    x45       c10                           531
    x45       c19                           879
    x46       obj1                            1
    x46       c21                           419
    x46       c23                           964
    x47       obj1                            1
    x47       c23                           158
    x47       c28                           418
    x48       obj1                            1
    x48       c17                           560
    x49       obj1                            1
    x49       c20                           726
    x49       c30                           507
    x50       obj1                            1
    x50       c3                            833
    x50       c4                            832
    x50       c12                           159
    x50       c18                           409
    x50       c27                           118
    x51       obj1                            1
    x51       c6                            252
    x51       c11                           433
    x52       obj1                            1
    x52       c5                            808
    x52       c11                           996
    x52       c13                           667
    x52       c21                           830
    x52       c22                           651
    x52       c27                           414
    x53       obj1                            1
    x53       c10                           228
    x53       c20                           255
    x54       obj1                            1
    x55       obj1                            1
    x55       c6                            418
    x55       c12                           881
    x55       c13                           678
    x55       c19                           184
    x56       obj1                            1
    x56       c10                           565
    x56       c30                           217
    x57       obj1                            1
    x57       c6                            458
    x57       c11                           987
    x57       c23                           528
    x57       c25                           481
    x58       obj1                            1
    x58       c12                           527
    x58       c16                           179
    x58       c28                           211
    x59       obj1                            1
    x59       c23                           723
    x60       obj1                            1
    x60       c8                            603
    x60       c16                           771
    x60       c28                           577
    MARK0001  'MARKER'                 'INTEND'
RHS
    rhs       c1                           1212
    rhs       c2                           1091
    rhs       c3                           2199
    rhs       c4                           2745
    rhs       c5                           1054
    rhs       c6                           1105
    rhs       c7                           2091
    rhs       c8                           2697
    rhs       c9                           2009
    rhs       c10                          2574
    rhs       c11                          3516
    rhs       c12                          2134
    rhs       c13                          2016
    rhs       c14                           653
    rhs       c15                          2157
    rhs       c16                           721
    rhs       c17                          1794
    rhs       c18                           713
    rhs       c19                          1489
    rhs       c20                          2926
    rhs       c21                          1634
    rhs       c22                          1016
    rhs       c23                          2453
    rhs       c24                           963
    rhs       c25                          2552
    rhs       c26                          1529
    rhs       c27                          1461
    rhs       c28                          2431
    rhs       c29                          1582
    rhs       c30                           900
BOUNDS
 LI bnd       x1        0
 LI bnd       x2        0
 LI bnd       x3        0
 LI bnd       x4        0
 LI bnd       x5        0
 LI bnd       x6        0
 LI bnd       x7        0
 LI bnd       x8        0
 LI bnd       x9        0
 LI bnd       x10       0
 LI bnd       x11       0
 LI bnd       x12       0
 LI bnd       x13       0
 LI bnd       x14       0
 LI bnd       x15       0
 LI bnd       x16       0
 LI bnd       x17       0
 LI bnd       x18       0
 LI bnd       x19       0
 LI bnd       x20       0
 LI bnd       x21       0
 LI bnd       x22       0
 LI bnd       x23       0
 LI bnd       x24       0
 LI bnd       x25       0
 LI bnd       x26       0
 LI bnd       x27       0
 LI bnd       x28       0
 LI bnd       x29       0
 LI bnd       x30       0
 LI bnd       x31       0
 LI bnd       x32       0
 LI bnd       x33       0
 LI bnd       x34       0
 LI bnd       x35       0
 LI bnd       x36       0
 LI bnd       x37       0
 LI bnd       x38       0
 LI bnd       x39       0
 LI bnd       x40       0
 LI bnd       x41       0
 LI bnd       x42       0
 LI bnd       x43       0
 LI bnd       x44       0
 LI bnd       x45       0
 LI bnd       x46       0
 LI bnd       x47       0
 LI bnd       x48       0
 LI bnd       x49       0
 LI bnd       x50       0
 LI bnd       x51       0
 LI bnd       x52       0
 LI bnd       x53       0
 LI bnd       x54       0
 LI bnd       x55       0
 LI bnd       x56       0
 LI bnd       x57       0
 LI bnd       x58       0
 LI bnd       x59       0
 LI bnd       x60       0
ENDATA
